sat
(:added-eqs                       25127
 :arith-eq-adapter                1286
 :arith-bound-propagations-lp     1303
 :arith-branch                    68
 :arith-conflicts                 3417
 :arith-cube-calls                25
 :arith-diseq                     6177
 :arith-fixed-eqs                 4503
 :arith-gcd-calls                 381
 :arith-gomory-cuts               40
 :arith-grobner-calls             412
 :arith-grobner-conflicts         121
 :arith-hnf-calls                 4
 :arith-horner-calls              109
 :arith-horner-cross-nested-forms 19329
 :arith-lower                     11024
 :arith-make-feasible             9661
 :arith-max-columns               1320
 :arith-max-rows                  704
 :arith-nla-add-bounds            166
 :arith-nla-lemmas                1795
 :arith-nla-propagate-bounds      1255
 :arith-nla-propagate-eq          18118
 :arith-nra-calls                 48
 :arith-offset-eqs                2354
 :arith-patches                   381
 :arith-patches-success           281
 :arith-upper                     9957
 :binary-propagations             47282
 :cnf-encoding-aux-vars           11
 :conflicts                       595
 :decisions                       118230
 :del-clause                      3923
 :elim-unconstrained              136
 :final-checks                    1170
 :max-memory                      33.98
 :memory                          19.46
 :minimized-lits                  543
 :mk-bool-var                     9483
 :mk-clause                       5757
 :mk-clause-binary                10796
 :nlsat-conflicts                 4867
 :nlsat-decisions                 141
 :nlsat-propagations              199348
 :nlsat-restarts                  3
 :nlsat-stages                    106527
 :num-allocs                      1794958798
 :num-checks                      1
 :propagations                    75277
 :restarts                        5
 :rlimit-count                    3713034
 :solve-eqs-elim-vars             79
 :solve-eqs-steps                 1208
 :time                            2.06
 :total-time                      2.07)
